0001 19
0002 4
0003 20
0004 13
0005 1
0006 1
0007 14
0008 17
0009 1
0010 5
0011 8
0012 15
0013 14
0014 17
0015 1
0016 1
0017 20
0018 1
0019 20
0020 5
0021 14
0022 1
0023 1
0024 5
0025 20
0026 11
0027 1
0028 16
0029 19
0030 8
0031 2
0032 7
0033 17
0034 4
0035 15
0036 20
0037 1
0038 7
0039 4
0040 5
0041 4
0042 20
0043 4
0044 19
0045 20
0046 1
0047 20
0048 15
0049 19
0050 1
0051 1
0052 8
0053 20
0054 20
0055 20
0056 17
0057 1
0058 14
0059 5
0060 18
0061 20
0062 6
0063 14
0064 5
0065 20
0066 13
0067 14
0068 20
0069 8
0070 7
0071 15
0072 20
0073 1
0074 20
0075 1
0076 5
0077 1
0078 1
0079 14
0080 20
0081 20
0082 9
0083 1
0084 1
0085 19
0086 1
0087 1
0088 19
0089 16
0090 18
0091 1
0092 5
0093 3
0094 2
0095 1
0096 20
0097 19
0098 16
0099 4
0100 7
0101 1
0102 9
0103 20
0104 17
0105 20
0106 9
0107 15
0108 1
0109 8
0110 20
0111 2
0112 3
0113 20
0114 4
0115 1
0116 12
0117 3
0118 20
0119 17
0120 11
0121 14
0122 1
0123 2
0124 19
0125 1
0126 5
0127 6
0128 15
0129 7
0130 13
0131 1
0132 1
0133 11
0134 17
0135 7
0136 8
0137 20
0138 16
0139 6
0140 5
0141 3
0142 20
0143 2
0144 2
0145 6
0146 3
0147 15
0148 7
0149 1
0150 6
0151 11
0152 19
0153 20
0154 16
0155 20
0156 12
0157 4
0158 1
0159 11
0160 15
0161 20
0162 3
0163 9
0164 2
0165 1
0166 5
0167 16
0168 6
0169 3
0170 7
0171 20
0172 11
0173 2
0174 18
0175 12
0176 2
0177 20
0178 1
0179 16
0180 3
0181 1
0182 6
0183 20
0184 16
0185 1
0186 6
0187 5
0188 11
0189 1
0190 7
0191 8
0192 18
0193 19
0194 20
0195 3
0196 19
0197 7
0198 8
0199 1
0200 11
0201 15
0202 9
0203 1
0204 1
0205 1
0206 5
0207 20
0208 20
0209 5
0210 9
0211 9
0212 9
0213 18
0214 18
0215 4
0216 1
0217 20
0218 1
0219 13
0220 20
0221 2
0222 1
0223 20
0224 1
0225 10
0226 16
0227 19
0228 3
0229 4
0230 1
0231 20
0232 20
0233 1
0234 20
0235 7
0236 6
0237 20
0238 20
0239 16
0240 16
0241 13
0242 20
0243 5
0244 18
0245 10
0246 18
0247 12
0248 12
0249 3
0250 8
0251 12
0252 10
0253 12
0254 8
0255 12
0256 12
0257 10
0258 15
0259 17
0260 19
0261 15
0262 1
0263 2
0264 19
0265 5
0266 14
0267 20
0268 16
0269 10
0270 7
0271 19
0272 5
0273 20
0274 17
0275 1
0276 1
0277 3
0278 15
0279 1
0280 20
0281 12
0282 7
0283 7
0284 1
0285 1
0286 16
0287 16
0288 19
0289 18
0290 4
0291 16
0292 14
0293 14
0294 20
0295 17
0296 14
0297 20
0298 16
0299 1
0300 4
0301 12
0302 6
0303 2
0304 15
0305 8
0306 2
0307 9
0308 13
0309 19
0310 7
0311 1
0312 1
0313 16
0314 6
0315 10
0316 1
0317 5
0318 17
0319 19
0320 18
0321 3
0322 20
0323 18
0324 15
0325 4
0326 4
0327 5
0328 17
0329 1
0330 1
0331 11
0332 3
0333 18
0334 2
0335 20
0336 16
0337 20
0338 1
0339 19
0340 7
0341 10
0342 9
0343 1
0344 8
0345 1
0346 14
0347 20
0348 15
0349 1
0350 5
0351 1
0352 9
0353 11
0354 15
0355 1
0356 13
0357 15
0358 2
0359 8
0360 11
0361 19
0362 9
0363 11
0364 5
0365 20
0366 14
0367 8
0368 13
0369 1
0370 20
0371 9
0372 1
0373 10
0374 20
0375 16
0376 20
0377 2
0378 1
0379 3
0380 6
0381 1
0382 20
0383 9
0384 14
0385 5
0386 6
0387 16
0388 7
0389 20
0390 17
0391 1
0392 1
0393 6
0394 7
0395 7
0396 13
0397 13
0398 6
0399 7
0400 20
0401 1
0402 7
0403 8
0404 4
0405 1
0406 16
0407 20
0408 20
0409 14
0410 1
0411 20
0412 15
0413 16
0414 16
0415 19
0416 2
0417 20
0418 19
0419 7
0420 4
0421 1
0422 15
0423 1
0424 10
0425 18
0426 11
0427 5
0428 20
0429 1
0430 18
0431 18
0432 16
0433 1
0434 20
0435 15
0436 20
0437 3
0438 10
0439 1
0440 16
0441 17
0442 1
0443 1
0444 8
0445 3
0446 19
0447 1
0448 5
0449 20
0450 20
0451 2
0452 14
0453 17
0454 17
0455 13
0456 1
0457 4
0458 1
0459 19
0460 7
0461 4
